c Horn-SAT control (sanity-only)
c Generated by mu_sat_difficulty_scale.py
p cnf 20 40
18 -15 -6 0
-3 13 -7 0
8 -15 -19 0
-15 -12 13 0
-9 16 -6 0
17 -6 -9 0
-8 10 -16 0
19 -14 -11 0
-12 13 -5 0
-11 19 -2 0
13 -20 -18 0
-16 -11 6 0
-8 14 -13 0
14 -11 -20 0
-5 2 -15 0
-10 1 -18 0
-11 -14 4 0
14 -15 -17 0
13 -20 -8 0
-6 16 -12 0
-9 -8 19 0
-11 6 -5 0
6 -13 -9 0
-17 -13 9 0
-11 5 -13 0
3 -13 -12 0
-11 -5 7 0
2 -13 -12 0
-1 -13 4 0
-10 -14 19 0
8 -14 -19 0
-14 6 -4 0
18 -4 -15 0
20 -16 -15 0
1 -16 -4 0
-11 15 -12 0
-4 -18 6 0
-18 16 -2 0
-6 -12 10 0
5 -11 -20 0
